; benchmark generated from python API
(set-info :status unknown)
(declare-fun x_months () Int)
(declare-fun x_beta () Int)
(assert
 (<= (- 1202) x_months))
(assert
 (>= 1209 x_months))
(assert
 (>= x_beta 0))
(assert
 (let ((?x3321 (+ x_months 24003)))
 (let ((?x3621 (- ?x3321 (* (div (- ?x3321 1) 12) 12))))
 (let ((?x4162 (ite (or (= ?x3621 4) (= ?x3621 6) (= ?x3621 9) (= ?x3621 11)) 30 31)))
 (let (($x626 (and (= (mod (div (- ?x3321 1) 12) 4) 0) (and (distinct (mod (div (- ?x3321 1) 12) 100) 0) true))))
 (let ((?x4410 (ite (or $x626 (= (mod (div (- ?x3321 1) 12) 400) 0)) 29 28)))
 (< x_beta (ite (= ?x3621 2) ?x4410 ?x4162))))))))
(assert
 (let (($x4990 (and (= x_months (- (+ (* 2023 12) 1) 24003)) (<= 0 x_beta))))
 (or (> x_months (- (+ (* 2023 12) 1) 24003)) $x4990)))
(assert
 (let ((?x2485 (+ x_beta 1)))
(let ((?x3646 (+ (+ x_months 0) 24003)))
(let ((?x1495 (- ?x3646 (* (div (- ?x3646 1) 12) 12))))
(let ((?x1415 (ite (or (= ?x1495 4) (= ?x1495 6) (= ?x1495 9) (= ?x1495 11)) 30 31)))
(let (($x2623 (and (= (mod (div (- ?x3646 1) 12) 4) 0) (and (distinct (mod (div (- ?x3646 1) 12) 100) 0) true))))
(let (($x3778 (or $x2623 (= (mod (div (- ?x3646 1) 12) 400) 0))))
(let ((?x4407 (ite (= ?x1495 2) (ite $x3778 29 28) ?x1415)))
(let (($x1048 (> 1 ?x2485)))
(let ((?x4341 (ite $x1048 1 (ite (> ?x2485 ?x4407) ?x4407 ?x2485))))
(let ((?x3794 (ite (> 1 ?x4341) 1 (ite (> ?x4341 ?x4407) ?x4407 ?x4341))))
(let ((?x3530 (ite (= 2 ?x1495) (ite $x3778 31 31) (ite (= 1 ?x1495) (ite $x3778 0 0) 0))))
(let ((?x4147 (ite (= 4 ?x1495) (ite $x3778 91 90) (ite (= 3 ?x1495) (ite $x3778 60 59) ?x3530))))
(let ((?x4148 (ite (= 6 ?x1495) (ite $x3778 152 151) (ite (= 5 ?x1495) (ite $x3778 121 120) ?x4147))))
(let ((?x1483 (ite (= 8 ?x1495) (ite $x3778 213 212) (ite (= 7 ?x1495) (ite $x3778 182 181) ?x4148))))
(let ((?x3578 (ite (= 10 ?x1495) (ite $x3778 274 273) (ite (= 9 ?x1495) (ite $x3778 244 243) ?x1483))))
(let ((?x972 (ite (= 12 ?x1495) (ite $x3778 335 334) (ite (= 11 ?x1495) (ite $x3778 305 304) ?x3578))))
(let ((?x2675 (+ (* 365 (- (div (- ?x3646 1) 12) 1)) (div (- (div (- ?x3646 1) 12) 1) 4))))
(let ((?x1909 (+ (- ?x2675 (div (- (div (- ?x3646 1) 12) 1) 100)) (div (- (div (- ?x3646 1) 12) 1) 400))))
(let ((?x4988 (+ (+ (- (+ (+ ?x1909 ?x972) (- ?x3794 1)) 730179) 31) 730179)))
(let ((?x971 (mod ?x4988 146097)))
(let ((?x1600 (div ?x971 36524)))
(let ((?x916 (ite (<= 4 ?x1600) 3 ?x1600)))
(let ((?x4160 (- ?x971 (* ?x916 36524))))
(let ((?x4027 (mod ?x4160 1461)))
(let ((?x299 (div ?x4027 365)))
(let ((?x368 (ite (<= 4 ?x299) 3 ?x299)))
(let ((?x1968 (+ (+ (* (div ?x4988 146097) 400) (* ?x916 100)) (* (div ?x4160 1461) 4))))
(let ((?x3518 (+ (+ ?x1968 ?x368) 1)))
(let (($x2031 (or (and (= (mod ?x3518 4) 0) (and (distinct (mod ?x3518 100) 0) true)) (= (mod ?x3518 400) 0))))
(let ((?x3550 (- ?x4027 (* ?x368 365))))
(let ((?x2037 (ite $x2031 31 31)))
(let (($x1943 (>= ?x3550 ?x2037)))
(let ((?x3478 (ite $x1943 (+ (- ?x3550 ?x2037) 1) (+ (- ?x3550 (ite $x2031 0 0)) 1))))
(let ((?x4199 (ite $x2031 60 59)))
(let (($x4299 (>= ?x3550 ?x4199)))
(let ((?x4280 (ite $x2031 91 90)))
(let (($x3456 (>= ?x3550 ?x4280)))
(let ((?x3433 (ite $x3456 (+ (- ?x3550 ?x4280) 1) (ite $x4299 (+ (- ?x3550 ?x4199) 1) ?x3478))))
(let ((?x4050 (ite $x2031 121 120)))
(let (($x3747 (>= ?x3550 ?x4050)))
(let ((?x1762 (ite $x2031 152 151)))
(let (($x2923 (>= ?x3550 ?x1762)))
(let ((?x1296 (ite $x2923 (+ (- ?x3550 ?x1762) 1) (ite $x3747 (+ (- ?x3550 ?x4050) 1) ?x3433))))
(let ((?x4293 (ite $x2031 182 181)))
(let (($x3576 (>= ?x3550 ?x4293)))
(let ((?x4269 (ite $x2031 213 212)))
(let (($x2371 (>= ?x3550 ?x4269)))
(let ((?x1727 (ite $x2371 (+ (- ?x3550 ?x4269) 1) (ite $x3576 (+ (- ?x3550 ?x4293) 1) ?x1296))))
(let ((?x393 (ite $x2031 244 243)))
(let (($x4179 (>= ?x3550 ?x393)))
(let ((?x1917 (ite $x2031 274 273)))
(let (($x4323 (>= ?x3550 ?x1917)))
(let ((?x5090 (ite $x4323 (+ (- ?x3550 ?x1917) 1) (ite $x4179 (+ (- ?x3550 ?x393) 1) ?x1727))))
(let ((?x2846 (ite $x2031 305 304)))
(let (($x4188 (>= ?x3550 ?x2846)))
(let ((?x4067 (ite $x2031 335 334)))
(let (($x1164 (>= ?x3550 ?x4067)))
(let ((?x3796 (ite $x1164 (+ (- ?x3550 ?x4067) 1) (ite $x4188 (+ (- ?x3550 ?x2846) 1) ?x5090))))
(let (($x789 (= 31 0)))
(let ((?x4369 (+ (+ x_months 1) 24003)))
(let ((?x3229 (- ?x4369 (* (div (- ?x4369 1) 12) 12))))
(let ((?x3572 (ite (or (= ?x3229 4) (= ?x3229 6) (= ?x3229 9) (= ?x3229 11)) 30 31)))
(let (($x4667 (and (= (mod (div (- ?x4369 1) 12) 4) 0) (and (distinct (mod (div (- ?x4369 1) 12) 100) 0) true))))
(let (($x3476 (or $x4667 (= (mod (div (- ?x4369 1) 12) 400) 0))))
(let ((?x1694 (ite (= ?x3229 2) (ite $x3476 29 28) ?x3572)))
(let ((?x4135 (ite $x1048 1 (ite (> ?x2485 ?x1694) ?x1694 ?x2485))))
(let ((?x1611 (ite (> 1 ?x4135) 1 (ite (> ?x4135 ?x1694) ?x1694 ?x4135))))
(let ((?x3938 (ite (= 2 ?x3229) (ite $x3476 31 31) (ite (= 1 ?x3229) (ite $x3476 0 0) 0))))
(let ((?x4101 (ite (= 4 ?x3229) (ite $x3476 91 90) (ite (= 3 ?x3229) (ite $x3476 60 59) ?x3938))))
(let ((?x3082 (ite (= 6 ?x3229) (ite $x3476 152 151) (ite (= 5 ?x3229) (ite $x3476 121 120) ?x4101))))
(let ((?x1406 (ite (= 8 ?x3229) (ite $x3476 213 212) (ite (= 7 ?x3229) (ite $x3476 182 181) ?x3082))))
(let ((?x1617 (ite (= 10 ?x3229) (ite $x3476 274 273) (ite (= 9 ?x3229) (ite $x3476 244 243) ?x1406))))
(let ((?x1259 (ite (= 12 ?x3229) (ite $x3476 335 334) (ite (= 11 ?x3229) (ite $x3476 305 304) ?x1617))))
(let ((?x862 (+ (* 365 (- (div (- ?x4369 1) 12) 1)) (div (- (div (- ?x4369 1) 12) 1) 4))))
(let ((?x490 (+ (- ?x862 (div (- (div (- ?x4369 1) 12) 1) 100)) (div (- (div (- ?x4369 1) 12) 1) 400))))
(let ((?x3963 (+ (+ (- (+ (+ ?x490 ?x1259) (- ?x1611 1)) 730179) 0) 730179)))
(let ((?x2956 (mod ?x3963 146097)))
(let ((?x820 (div ?x2956 36524)))
(let ((?x3908 (ite (<= 4 ?x820) 3 ?x820)))
(let ((?x1385 (- ?x2956 (* ?x3908 36524))))
(let ((?x3272 (mod ?x1385 1461)))
(let ((?x2222 (div ?x3272 365)))
(let ((?x3934 (ite (<= 4 ?x2222) 3 ?x2222)))
(let ((?x2984 (+ (+ (* (div ?x3963 146097) 400) (* ?x3908 100)) (* (div ?x1385 1461) 4))))
(let ((?x821 (+ (+ ?x2984 ?x3934) 1)))
(let (($x4094 (or (and (= (mod ?x821 4) 0) (and (distinct (mod ?x821 100) 0) true)) (= (mod ?x821 400) 0))))
(let ((?x3631 (- ?x3272 (* ?x3934 365))))
(let ((?x3978 (ite $x4094 31 31)))
(let (($x484 (>= ?x3631 ?x3978)))
(let ((?x1090 (ite $x484 (+ (- ?x3631 ?x3978) 1) (+ (- ?x3631 (ite $x4094 0 0)) 1))))
(let ((?x2413 (ite $x4094 60 59)))
(let (($x3584 (>= ?x3631 ?x2413)))
(let ((?x3789 (ite $x4094 91 90)))
(let (($x3781 (>= ?x3631 ?x3789)))
(let ((?x1583 (ite $x3781 (+ (- ?x3631 ?x3789) 1) (ite $x3584 (+ (- ?x3631 ?x2413) 1) ?x1090))))
(let ((?x3571 (ite $x4094 121 120)))
(let (($x4399 (>= ?x3631 ?x3571)))
(let ((?x1455 (ite $x4094 152 151)))
(let (($x4755 (>= ?x3631 ?x1455)))
(let ((?x1659 (ite $x4755 (+ (- ?x3631 ?x1455) 1) (ite $x4399 (+ (- ?x3631 ?x3571) 1) ?x1583))))
(let ((?x1636 (ite $x4094 182 181)))
(let (($x3634 (>= ?x3631 ?x1636)))
(let ((?x533 (ite $x4094 213 212)))
(let (($x2604 (>= ?x3631 ?x533)))
(let ((?x2883 (ite $x2604 (+ (- ?x3631 ?x533) 1) (ite $x3634 (+ (- ?x3631 ?x1636) 1) ?x1659))))
(let ((?x3202 (ite $x4094 244 243)))
(let (($x1645 (>= ?x3631 ?x3202)))
(let ((?x3882 (ite $x4094 274 273)))
(let (($x4276 (>= ?x3631 ?x3882)))
(let ((?x3542 (ite $x4276 (+ (- ?x3631 ?x3882) 1) (ite $x1645 (+ (- ?x3631 ?x3202) 1) ?x2883))))
(let ((?x3913 (ite $x4094 305 304)))
(let (($x4145 (>= ?x3631 ?x3913)))
(let ((?x236 (ite $x4094 335 334)))
(let (($x337 (>= ?x3631 ?x236)))
(let ((?x981 (ite $x337 (+ (- ?x3631 ?x236) 1) (ite $x4145 (+ (- ?x3631 ?x3913) 1) ?x3542))))
(let (($x879 (= 0 0)))
(let ((?x1999 (ite $x3747 5 (ite $x3456 4 (ite $x4299 3 (ite $x1943 2 1))))))
(let ((?x4314 (ite $x4179 9 (ite $x2371 8 (ite $x3576 7 (ite $x2923 6 ?x1999))))))
(let ((?x3883 (ite $x1164 12 (ite $x4188 11 (ite $x4323 10 ?x4314)))))
(let ((?x507 (+ (* (ite $x789 (div (- ?x3646 1) 12) ?x3518) 12) (ite $x789 ?x1495 ?x3883))))
(let ((?x1081 (- ?x507 24003)))
(let ((?x2358 (ite $x4399 5 (ite $x3781 4 (ite $x3584 3 (ite $x484 2 1))))))
(let ((?x3730 (ite $x1645 9 (ite $x2604 8 (ite $x3634 7 (ite $x4755 6 ?x2358))))))
(let ((?x2559 (+ (* (ite $x879 (div (- ?x4369 1) 12) ?x821) 12) (ite $x879 ?x3229 (ite $x337 12 (ite $x4145 11 (ite $x4276 10 ?x3730)))))))
(let ((?x2321 (- ?x2559 24003)))
(let (($x1188 (and (= ?x2321 ?x1081) (<= (- (ite $x879 ?x1611 ?x981) 1) (- (ite $x789 ?x3794 ?x3796) 1)))))
(not (or (< ?x2321 ?x1081) $x1188)))))))))))))))))))))))))))))))))))))))))))))))))))))))))))))))))))))))))))))))))))))))))))))))))))))))))))))))))))))))))))))))))
(check-sat)
